presolving:
(round 1, fast)       300 del vars, 0 del conss, 0 add conss, 0 chg bounds, 0 chg sides, 0 chg coeffs, 0 upgd conss, 0 impls, 598 clqs
(round 2, exhaustive) 300 del vars, 0 del conss, 0 add conss, 0 chg bounds, 0 chg sides, 0 chg coeffs, 598 upgd conss, 0 impls, 598 clqs
   (3.0s) probing: 51/89102 (0.1%) - 0 fixings, 0 aggregations, 0 implications, 0 bound changes
   (3.0s) probing aborted: 50/50 successive totally useless probings
   Deactivated symmetry handling methods, since SCIP was built without symmetry detector (SYM=none).
presolving (3 rounds: 3 fast, 2 medium, 2 exhaustive):
 300 deleted vars, 0 deleted constraints, 0 added constraints, 0 tightened bounds, 0 added holes, 0 changed sides, 0 changed coefficients
 0 implications, 598 cliques
presolved problem has 89400 variables (89102 bin, 0 int, 0 impl, 298 cont) and 89104 constraints
    598 constraints of type <setppc>
  88506 constraints of type <linear>
Presolving Time: 4.00

 time | node  | left  |LP iter|LP it/n|mem/heur|mdpt |vars |cons |rows |cuts |sepa|confs|strbr|  dualbound   | primalbound  |  gap   | compl. 
p 7.0s|     1 |     0 |   301 |     - | vbounds|   0 |  89k|  89k|  89k|   0 |  0 |   5 |   0 | 0.000000e+00 | 8.350780e+04 |    Inf | unknown
  8.0s|     1 |     0 |  1239 |     - |   678M |   0 |  89k|  89k|  89k|   0 |  0 |   5 |   0 | 3.991171e+04 | 8.350780e+04 | 109.23%| unknown
 10.0s|     1 |     0 |  1512 |     - |   694M |   0 |  89k|  89k|  89k| 213 |  1 |   5 |   0 | 4.200148e+04 | 8.350780e+04 |  98.82%| unknown
 13.0s|     1 |     0 |  1655 |     - |   712M |   0 |  89k|  89k|  89k| 305 |  2 |   5 |   0 | 4.330664e+04 | 8.350780e+04 |  92.83%| unknown
 16.0s|     1 |     0 |  1668 |     - |   731M |   0 |  89k|  89k|  89k| 312 |  3 |   5 |   0 | 4.341802e+04 | 8.350780e+04 |  92.33%| unknown
 18.0s|     1 |     0 |  1785 |     - |   740M |   0 |  89k|  89k|  89k| 383 |  4 |   5 |   0 | 4.354840e+04 | 8.350780e+04 |  91.76%| unknown
 21.0s|     1 |     0 |  1828 |     - |   752M |   0 |  89k|  89k|  89k| 399 |  5 |   5 |   0 | 4.358581e+04 | 8.350780e+04 |  91.59%| unknown
 24.0s|     1 |     0 |  1867 |     - |   761M |   0 |  89k|  89k|  89k| 419 |  6 |   5 |   0 | 4.372427e+04 | 8.350780e+04 |  90.99%| unknown
 27.0s|     1 |     0 |  1909 |     - |   772M |   0 |  89k|  89k|  89k| 434 |  7 |   5 |   0 | 4.378189e+04 | 8.350780e+04 |  90.74%| unknown
 30.0s|     1 |     0 |  1963 |     - |   783M |   0 |  89k|  89k|  89k| 454 |  8 |   5 |   0 | 4.394772e+04 | 8.350780e+04 |  90.02%| unknown
 33.0s|     1 |     0 |  2043 |     - |   797M |   0 |  89k|  89k|  89k| 469 |  9 |   5 |   0 | 4.398686e+04 | 8.350780e+04 |  89.85%| unknown
 36.0s|     1 |     0 |  2102 |     - |   807M |   0 |  89k|  89k|  89k| 486 | 10 |   5 |   0 | 4.400303e+04 | 8.350780e+04 |  89.78%| unknown
 39.0s|     1 |     0 |  2189 |     - |   818M |   0 |  89k|  89k|  89k| 506 | 11 |   5 |   0 | 4.407871e+04 | 8.350780e+04 |  89.45%| unknown
 42.0s|     1 |     0 |  2233 |     - |   829M |   0 |  89k|  89k|  89k| 531 | 12 |   5 |   0 | 4.411449e+04 | 8.350780e+04 |  89.30%| unknown
 45.0s|     1 |     0 |  2294 |     - |   839M |   0 |  89k|  89k|  89k| 547 | 13 |   5 |   0 | 4.415243e+04 | 8.350780e+04 |  89.14%| unknown
 time | node  | left  |LP iter|LP it/n|mem/heur|mdpt |vars |cons |rows |cuts |sepa|confs|strbr|  dualbound   | primalbound  |  gap   | compl. 
 60.0s|     1 |     0 |  2331 |     - |   847M |   0 |  89k|  89k|  89k| 565 | 14 |   5 |   0 | 4.417523e+04 | 8.350780e+04 |  89.04%| unknown
 63.0s|     1 |     0 |  2372 |     - |   857M |   0 |  89k|  89k|  89k| 582 | 15 |   5 |   0 | 4.424156e+04 | 8.350780e+04 |  88.75%| unknown
 66.0s|     1 |     0 |  2406 |     - |   866M |   0 |  89k|  89k|  89k| 600 | 16 |   5 |   0 | 4.428641e+04 | 8.350780e+04 |  88.56%| unknown
 70.0s|     1 |     0 |  2442 |     - |   877M |   0 |  89k|  89k|  89k| 624 | 17 |   5 |   0 | 4.435043e+04 | 8.350780e+04 |  88.29%| unknown
 73.0s|     1 |     0 |  2459 |     - |   886M |   0 |  89k|  89k|  89k| 632 | 18 |   5 |   0 | 4.436884e+04 | 8.350780e+04 |  88.21%| unknown
 76.0s|     1 |     0 |  2571 |     - |   894M |   0 |  89k|  89k|  89k| 655 | 19 |   5 |   0 | 4.456078e+04 | 8.350780e+04 |  87.40%| unknown
 91.0s|     1 |     0 |  2682 |     - |   905M |   0 |  89k|  89k|  89k| 705 | 20 |   5 |   0 | 4.476141e+04 | 8.350780e+04 |  86.56%| unknown
 94.0s|     1 |     0 |  2739 |     - |   905M |   0 |  89k|  89k|  89k| 731 | 21 |   5 |   0 | 4.479764e+04 | 8.350780e+04 |  86.41%| unknown
 97.0s|     1 |     0 |  2770 |     - |   905M |   0 |  89k|  89k|  89k| 745 | 22 |   5 |   0 | 4.483672e+04 | 8.350780e+04 |  86.25%| unknown
  100s|     1 |     0 |  2779 |     - |   905M |   0 |  89k|  89k|  89k| 753 | 23 |   5 |   0 | 4.483672e+04 | 8.350780e+04 |  86.25%| unknown
  103s|     1 |     0 |  2782 |     - |   905M |   0 |  89k|  89k|  89k| 756 | 24 |   5 |   0 | 4.483672e+04 | 8.350780e+04 |  86.25%| unknown
  105s|     1 |     0 |  2842 |     - |   905M |   0 |  89k|  89k|  89k| 761 | 25 |   5 |   0 | 4.487492e+04 | 8.350780e+04 |  86.09%| unknown
  121s|     1 |     0 |  2869 |     - |   905M |   0 |  89k|  89k|  89k| 789 | 26 |   5 |   0 | 4.488662e+04 | 8.350780e+04 |  86.04%| unknown
  125s|     1 |     0 |  2873 |     - |   905M |   0 |  89k|  89k|  89k| 793 | 27 |   5 |   0 | 4.488662e+04 | 8.350780e+04 |  86.04%| unknown
  129s|     1 |     0 |  2895 |     - |   905M |   0 |  89k|  89k|  89k| 804 | 28 |   5 |   0 | 4.490867e+04 | 8.350780e+04 |  85.95%| unknown
 time | node  | left  |LP iter|LP it/n|mem/heur|mdpt |vars |cons |rows |cuts |sepa|confs|strbr|  dualbound   | primalbound  |  gap   | compl. 
  133s|     1 |     0 |  2924 |     - |   905M |   0 |  89k|  89k|  89k| 819 | 29 |   5 |   0 | 4.492839e+04 | 8.350780e+04 |  85.87%| unknown
  137s|     1 |     0 |  2939 |     - |   905M |   0 |  89k|  89k|  89k| 834 | 30 |   5 |   0 | 4.492839e+04 | 8.350780e+04 |  85.87%| unknown
  139s|     1 |     0 |  2957 |     - |   905M |   0 |  89k|  89k|  89k| 839 | 31 |   5 |   0 | 4.494819e+04 | 8.350780e+04 |  85.79%| unknown
  156s|     1 |     0 |  2966 |     - |   905M |   0 |  89k|  89k|  89k| 843 | 32 |   5 |   0 | 4.494819e+04 | 8.350780e+04 |  85.79%| unknown
  160s|     1 |     0 |  2968 |     - |   905M |   0 |  89k|  89k|  89k| 846 | 33 |   5 |   0 | 4.494819e+04 | 8.350780e+04 |  85.79%| unknown
  164s|     1 |     0 |  2973 |     - |   905M |   0 |  89k|  89k|  89k| 851 | 34 |   5 |   0 | 4.494819e+04 | 8.350780e+04 |  85.79%| unknown
  168s|     1 |     0 |  2974 |     - |   905M |   0 |  89k|  89k|  89k| 852 | 35 |   5 |   0 | 4.494819e+04 | 8.350780e+04 |  85.79%| unknown
  172s|     1 |     0 |  2990 |     - |   905M |   0 |  89k|  89k|  89k| 859 | 36 |   5 |   0 | 4.494835e+04 | 8.350780e+04 |  85.79%| unknown
  175s|     1 |     0 |  2991 |     - |   905M |   0 |  89k|  89k|  89k| 860 | 37 |   5 |   0 | 4.494835e+04 | 8.350780e+04 |  85.79%| unknown
  520s|     1 |     2 | 12671 |     - |   921M |   0 |  89k|  89k|  89k| 860 | 39 |   8 |  48 | 4.499476e+04 | 8.350780e+04 |  85.59%| unknown

SCIP Status        : solving was interrupted [time limit reached]
Solving Time (sec) : 600.00
Solving Nodes      : 2
Primal Bound       : +8.35077983807451e+04 (1 solutions)
Dual Bound         : +4.49947556552456e+04
Gap                : 85.59 %
Trying to solve problem with MTZ Solver Method...
Starting Solver, time limit setted to 10 minutes
Route:  [[0, 2], [1, 3], [2, 1], [3, 4], [4, 5], [5, 6], [6, 7], [7, 8], [8, 9], [9, 10], [10, 11], [11, 12], [12, 13], [13, 14], [14, 15], [15, 16], [16, 17], [17, 18], [18, 19], [19, 20], [20, 21], [21, 22], [22, 23], [23, 24], [24, 25], [25, 26], [26, 27], [27, 28], [28, 29], [29, 30], [30, 31], [31, 32], [32, 33], [33, 34], [34, 35], [35, 36], [36, 37], [37, 38], [38, 39], [39, 40], [40, 41], [41, 42], [42, 43], [43, 44], [44, 45], [45, 46], [46, 47], [47, 48], [48, 49], [49, 50], [50, 51], [51, 52], [52, 53], [53, 54], [54, 55], [55, 56], [56, 57], [57, 58], [58, 59], [59, 60], [60, 61], [61, 62], [62, 63], [63, 64], [64, 65], [65, 66], [66, 67], [67, 68], [68, 69], [69, 70], [70, 71], [71, 72], [72, 73], [73, 74], [74, 75], [75, 76], [76, 77], [77, 78], [78, 79], [79, 80], [80, 81], [81, 82], [82, 83], [83, 84], [84, 85], [85, 86], [86, 87], [87, 88], [88, 89], [89, 90], [90, 91], [91, 92], [92, 93], [93, 94], [94, 95], [95, 96], [96, 97], [97, 98], [98, 99], [99, 100], [100, 101], [101, 102], [102, 103], [103, 104], [104, 105], [105, 106], [106, 107], [107, 108], [108, 109], [109, 110], [110, 111], [111, 112], [112, 113], [113, 114], [114, 115], [115, 116], [116, 117], [117, 118], [118, 119], [119, 120], [120, 121], [121, 122], [122, 123], [123, 124], [124, 125], [125, 126], [126, 127], [127, 128], [128, 129], [129, 130], [130, 131], [131, 132], [132, 133], [133, 134], [134, 135], [135, 136], [136, 137], [137, 138], [138, 139], [139, 140], [140, 141], [141, 142], [142, 143], [143, 144], [144, 145], [145, 146], [146, 147], [147, 148], [148, 149], [149, 150], [150, 151], [151, 152], [152, 153], [153, 154], [154, 155], [155, 156], [156, 157], [157, 158], [158, 159], [159, 160], [160, 161], [161, 162], [162, 163], [163, 164], [164, 165], [165, 166], [166, 167], [167, 168], [168, 169], [169, 170], [170, 171], [171, 172], [172, 173], [173, 174], [174, 175], [175, 176], [176, 177], [177, 178], [178, 179], [179, 180], [180, 181], [181, 182], [182, 183], [183, 184], [184, 185], [185, 186], [186, 187], [187, 188], [188, 189], [189, 190], [190, 191], [191, 192], [192, 193], [193, 194], [194, 195], [195, 196], [196, 197], [197, 198], [198, 199], [199, 200], [200, 201], [201, 202], [202, 203], [203, 204], [204, 205], [205, 206], [206, 207], [207, 208], [208, 209], [209, 210], [210, 211], [211, 212], [212, 213], [213, 214], [214, 215], [215, 216], [216, 217], [217, 218], [218, 219], [219, 220], [220, 221], [221, 222], [222, 223], [223, 224], [224, 225], [225, 226], [226, 227], [227, 228], [228, 229], [229, 230], [230, 231], [231, 232], [232, 233], [233, 234], [234, 235], [235, 236], [236, 237], [237, 238], [238, 239], [239, 240], [240, 241], [241, 242], [242, 243], [243, 244], [244, 245], [245, 246], [246, 247], [247, 248], [248, 249], [249, 250], [250, 251], [251, 252], [252, 253], [253, 254], [254, 255], [255, 256], [256, 257], [257, 258], [258, 259], [259, 260], [260, 261], [261, 262], [262, 263], [263, 264], [264, 265], [265, 266], [266, 267], [267, 268], [268, 269], [269, 270], [270, 271], [271, 272], [272, 273], [273, 274], [274, 275], [275, 276], [276, 277], [277, 278], [278, 279], [279, 280], [280, 281], [281, 282], [282, 283], [283, 284], [284, 285], [285, 286], [286, 287], [287, 288], [288, 289], [289, 290], [290, 291], [291, 292], [292, 293], [293, 294], [294, 295], [295, 296], [296, 297], [297, 298], [298, 0]]
An Otimal Solution was found, yay!
Objective value: 83507.8
Problem solved in 12742 iterations
Problem solved in 2 nodes
Final Route Configuration succesfully created at:
data/routes/pr299.csv
